\* Improving_ex_post_stable_matchings *\
Minimize
OBJ: 1.23333333333 w_0 + 1.23333333333 w_1 + 1.26666666667 w_10
 + 1.16666666667 w_11 + 1.23333333333 w_12 + 1.06666666667 w_13
 + 1.26666666667 w_14 + 1.36666666667 w_15 + 1.16666666667 w_16
 + 1.13333333333 w_17 + 1.33333333333 w_18 + 1.2 w_19 + 1.16666666667 w_2
 + 1.16666666667 w_20 + 1.23333333333 w_21 + 1.23333333333 w_22
 + 1.16666666667 w_23 + 1.13333333333 w_24 + 1.13333333333 w_25
 + 1.26666666667 w_26 + 1.23333333333 w_27 + 1.16666666667 w_28 + 1.2 w_29
 + 1.13333333333 w_3 + 1.16666666667 w_30 + 1.1 w_31 + 1.13333333333 w_32
 + 1.23333333333 w_33 + 1.3 w_34 + 1.16666666667 w_35 + 1.2 w_36 + 1.3 w_37
 + 1.3 w_38 + 1.3 w_39 + 1.3 w_4 + 1.33333333333 w_40 + 1.23333333333 w_41
 + 1.2 w_42 + 1.23333333333 w_43 + 1.36666666667 w_44 + 1.06666666667 w_45
 + 1.23333333333 w_46 + 1.16666666667 w_47 + 1.1 w_48 + 1.26666666667 w_49
 + 1.06666666667 w_5 + 1.3 w_50 + 1.1 w_51 + 1.23333333333 w_52
 + 1.33333333333 w_53 + 1.16666666667 w_54 + 1.2 w_55 + 1.16666666667 w_56
 + 1.3 w_57 + 1.13333333333 w_58 + 1.23333333333 w_6 + 1.13333333333 w_7
 + 1.13333333333 w_8 + 1.23333333333 w_9
Subject To
FOSD_0_0: w_0 + w_1 + w_10 + w_11 + w_12 + w_13 + w_14 + w_15 + w_16 + w_17
 + w_18 + w_19 + w_2 + w_20 + w_21 + w_22 + w_23 + w_24 + w_25 + w_26 + w_27
 + w_28 + w_29 + w_3 + w_30 + w_31 + w_32 + w_33 + w_34 + w_35 + w_36 + w_37
 + w_38 + w_39 + w_4 + w_40 + w_41 + w_42 + w_43 + w_44 + w_45 + w_46 + w_47
 + w_48 + w_49 + w_5 + w_50 + w_51 + w_52 + w_53 + w_54 + w_55 + w_56 + w_57
 + w_58 + w_6 + w_7 + w_8 + w_9 >= 1
FOSD_0_2: w_0 + w_1 + w_10 + w_11 + w_12 + w_13 + w_14 + w_15 + w_16 + w_17
 + w_18 + w_19 + w_2 + w_20 + w_21 + w_22 + w_23 + w_24 + w_25 + w_26 + w_27
 + w_28 + w_29 + w_3 + w_30 + w_31 + w_32 + w_33 + w_34 + w_35 + w_36 + w_37
 + w_38 + w_39 + w_4 + w_40 + w_41 + w_42 + w_43 + w_44 + w_45 + w_46 + w_47
 + w_48 + w_49 + w_5 + w_50 + w_51 + w_52 + w_53 + w_54 + w_55 + w_56 + w_57
 + w_58 + w_6 + w_7 + w_8 + w_9 >= 1
FOSD_0_4: w_10 + w_11 + w_13 + w_16 + w_23 + w_30 + w_31 + w_35 + w_36 + w_45
 + w_48 + w_5 + w_51 + w_54 + w_55 >= 0.105
FOSD_10_0: w_0 + w_1 + w_10 + w_11 + w_12 + w_13 + w_14 + w_15 + w_16 + w_17
 + w_18 + w_19 + w_2 + w_20 + w_21 + w_22 + w_23 + w_24 + w_25 + w_26 + w_27
 + w_28 + w_29 + w_3 + w_30 + w_31 + w_32 + w_33 + w_34 + w_35 + w_36 + w_37
 + w_38 + w_39 + w_4 + w_40 + w_41 + w_42 + w_43 + w_44 + w_45 + w_46 + w_47
 + w_48 + w_49 + w_5 + w_50 + w_51 + w_52 + w_53 + w_54 + w_55 + w_56 + w_57
 + w_58 + w_6 + w_7 + w_8 + w_9 >= 1
FOSD_10_1: w_0 + w_1 + w_10 + w_11 + w_12 + w_13 + w_14 + w_15 + w_16 + w_17
 + w_18 + w_19 + w_2 + w_20 + w_21 + w_22 + w_23 + w_24 + w_25 + w_26 + w_27
 + w_28 + w_29 + w_3 + w_30 + w_31 + w_32 + w_33 + w_34 + w_35 + w_36 + w_37
 + w_38 + w_39 + w_4 + w_40 + w_41 + w_42 + w_43 + w_44 + w_45 + w_46 + w_47
 + w_48 + w_49 + w_5 + w_50 + w_51 + w_52 + w_53 + w_54 + w_55 + w_56 + w_57
 + w_58 + w_6 + w_7 + w_8 + w_9 >= 1
FOSD_10_3: w_0 + w_1 + w_10 + w_11 + w_12 + w_13 + w_14 + w_15 + w_16 + w_17
 + w_18 + w_19 + w_2 + w_20 + w_21 + w_22 + w_23 + w_24 + w_25 + w_26 + w_27
 + w_28 + w_29 + w_3 + w_30 + w_31 + w_32 + w_33 + w_34 + w_35 + w_36 + w_37
 + w_38 + w_39 + w_4 + w_40 + w_41 + w_42 + w_43 + w_44 + w_45 + w_46 + w_47
 + w_48 + w_49 + w_5 + w_50 + w_51 + w_52 + w_53 + w_54 + w_55 + w_56 + w_57
 + w_58 + w_6 + w_7 + w_8 + w_9 >= 1
FOSD_11_3: w_0 + w_1 + w_10 + w_11 + w_12 + w_13 + w_14 + w_15 + w_16 + w_17
 + w_18 + w_19 + w_2 + w_20 + w_21 + w_22 + w_23 + w_24 + w_25 + w_26 + w_27
 + w_28 + w_29 + w_3 + w_30 + w_31 + w_32 + w_33 + w_34 + w_35 + w_36 + w_37
 + w_38 + w_39 + w_4 + w_40 + w_41 + w_42 + w_43 + w_44 + w_45 + w_46 + w_47
 + w_48 + w_49 + w_5 + w_50 + w_51 + w_52 + w_53 + w_54 + w_55 + w_56 + w_57
 + w_58 + w_6 + w_7 + w_8 + w_9 >= 1
FOSD_11_4: w_0 + w_1 + w_10 + w_11 + w_12 + w_13 + w_14 + w_15 + w_16 + w_17
 + w_18 + w_19 + w_2 + w_20 + w_21 + w_22 + w_23 + w_24 + w_25 + w_26 + w_27
 + w_28 + w_29 + w_3 + w_30 + w_31 + w_32 + w_33 + w_34 + w_35 + w_36 + w_37
 + w_38 + w_39 + w_4 + w_40 + w_41 + w_42 + w_43 + w_44 + w_45 + w_46 + w_47
 + w_48 + w_49 + w_5 + w_50 + w_51 + w_52 + w_53 + w_54 + w_55 + w_56 + w_57
 + w_58 + w_6 + w_7 + w_8 + w_9 >= 1
FOSD_12_0: w_0 + w_1 + w_10 + w_11 + w_12 + w_13 + w_14 + w_15 + w_16 + w_17
 + w_18 + w_19 + w_2 + w_20 + w_21 + w_22 + w_23 + w_24 + w_25 + w_26 + w_27
 + w_28 + w_29 + w_3 + w_30 + w_31 + w_32 + w_33 + w_34 + w_35 + w_36 + w_37
 + w_38 + w_39 + w_4 + w_40 + w_41 + w_42 + w_43 + w_44 + w_45 + w_46 + w_47
 + w_48 + w_49 + w_5 + w_50 + w_51 + w_52 + w_53 + w_54 + w_55 + w_56 + w_57
 + w_58 + w_6 + w_7 + w_8 + w_9 >= 1
FOSD_12_2: w_0 + w_1 + w_10 + w_11 + w_12 + w_13 + w_14 + w_15 + w_16 + w_17
 + w_18 + w_19 + w_2 + w_20 + w_21 + w_22 + w_23 + w_24 + w_25 + w_26 + w_27
 + w_28 + w_29 + w_3 + w_30 + w_31 + w_32 + w_33 + w_34 + w_35 + w_36 + w_37
 + w_38 + w_39 + w_4 + w_40 + w_41 + w_42 + w_43 + w_44 + w_45 + w_46 + w_47
 + w_48 + w_49 + w_5 + w_50 + w_51 + w_52 + w_53 + w_54 + w_55 + w_56 + w_57
 + w_58 + w_6 + w_7 + w_8 + w_9 >= 1
FOSD_12_3: w_0 + w_1 + w_10 + w_11 + w_12 + w_13 + w_14 + w_15 + w_16 + w_17
 + w_18 + w_19 + w_2 + w_20 + w_21 + w_22 + w_23 + w_24 + w_25 + w_26 + w_27
 + w_28 + w_29 + w_3 + w_30 + w_31 + w_32 + w_33 + w_34 + w_35 + w_36 + w_37
 + w_38 + w_39 + w_4 + w_40 + w_41 + w_42 + w_43 + w_44 + w_45 + w_46 + w_47
 + w_48 + w_49 + w_5 + w_50 + w_51 + w_52 + w_53 + w_54 + w_55 + w_56 + w_57
 + w_58 + w_6 + w_7 + w_8 + w_9 >= 1
FOSD_12_4: w_0 + w_1 + w_10 + w_11 + w_12 + w_13 + w_14 + w_15 + w_16 + w_17
 + w_18 + w_19 + w_2 + w_20 + w_21 + w_22 + w_23 + w_24 + w_25 + w_26 + w_27
 + w_28 + w_29 + w_3 + w_30 + w_31 + w_32 + w_33 + w_34 + w_35 + w_36 + w_37
 + w_38 + w_39 + w_4 + w_40 + w_41 + w_42 + w_43 + w_44 + w_45 + w_46 + w_47
 + w_48 + w_49 + w_5 + w_50 + w_51 + w_52 + w_53 + w_54 + w_55 + w_56 + w_57
 + w_58 + w_6 + w_7 + w_8 + w_9 >= 1
_dummy: __dummy = 0
FOSD_13_0: __dummy >= 0
FOSD_13_2: w_0 + w_1 + w_10 + w_11 + w_12 + w_13 + w_14 + w_15 + w_16 + w_17
 + w_18 + w_19 + w_2 + w_20 + w_21 + w_22 + w_23 + w_24 + w_25 + w_26 + w_27
 + w_28 + w_29 + w_3 + w_30 + w_31 + w_32 + w_33 + w_34 + w_35 + w_36 + w_37
 + w_38 + w_39 + w_4 + w_40 + w_41 + w_42 + w_43 + w_44 + w_45 + w_46 + w_47
 + w_48 + w_49 + w_5 + w_50 + w_51 + w_52 + w_53 + w_54 + w_55 + w_56 + w_57
 + w_58 + w_6 + w_7 + w_8 + w_9 >= 1
FOSD_13_3: __dummy >= 0
FOSD_13_4: w_0 + w_1 + w_10 + w_11 + w_12 + w_13 + w_14 + w_15 + w_16 + w_17
 + w_18 + w_19 + w_2 + w_20 + w_21 + w_22 + w_23 + w_24 + w_25 + w_26 + w_27
 + w_28 + w_29 + w_3 + w_30 + w_31 + w_32 + w_33 + w_34 + w_35 + w_36 + w_37
 + w_38 + w_39 + w_4 + w_40 + w_41 + w_42 + w_43 + w_44 + w_45 + w_46 + w_47
 + w_48 + w_49 + w_5 + w_50 + w_51 + w_52 + w_53 + w_54 + w_55 + w_56 + w_57
 + w_58 + w_6 + w_7 + w_8 + w_9 >= 1
FOSD_14_4: w_14 + w_2 + w_20 + w_21 + w_26 + w_27 + w_28 + w_3 + w_32 + w_33
 + w_34 + w_41 + w_43 + w_49 + w_58 + w_6 >= 0.148
FOSD_15_4: w_0 + w_1 + w_10 + w_11 + w_12 + w_13 + w_14 + w_15 + w_16 + w_17
 + w_18 + w_19 + w_2 + w_20 + w_21 + w_22 + w_23 + w_24 + w_25 + w_26 + w_27
 + w_28 + w_29 + w_3 + w_30 + w_31 + w_32 + w_33 + w_34 + w_35 + w_36 + w_37
 + w_38 + w_39 + w_4 + w_40 + w_41 + w_42 + w_43 + w_44 + w_45 + w_46 + w_47
 + w_48 + w_49 + w_5 + w_50 + w_51 + w_52 + w_53 + w_54 + w_55 + w_56 + w_57
 + w_58 + w_6 + w_7 + w_8 + w_9 >= 1
FOSD_16_0: w_0 + w_1 + w_10 + w_11 + w_14 + w_15 + w_16 + w_17 + w_18 + w_2
 + w_21 + w_22 + w_24 + w_26 + w_27 + w_28 + w_29 + w_30 + w_31 + w_34 + w_35
 + w_36 + w_38 + w_39 + w_4 + w_40 + w_41 + w_43 + w_44 + w_45 + w_46 + w_47
 + w_48 + w_49 + w_50 + w_52 + w_53 + w_55 + w_56 + w_58 + w_8 + w_9 >= 0.695
FOSD_16_3: __dummy >= 0
FOSD_17_0: __dummy >= 0
FOSD_17_3: __dummy >= 0
FOSD_18_0: w_0 + w_1 + w_10 + w_11 + w_12 + w_13 + w_14 + w_15 + w_18 + w_20
 + w_23 + w_24 + w_25 + w_26 + w_27 + w_28 + w_3 + w_31 + w_33 + w_34 + w_35
 + w_36 + w_37 + w_39 + w_4 + w_40 + w_42 + w_43 + w_44 + w_46 + w_47 + w_49
 + w_51 + w_52 + w_53 + w_54 + w_55 + w_56 + w_57 + w_6 + w_7 + w_8 + w_9
 >= 0.691
FOSD_18_3: w_0 + w_1 + w_10 + w_11 + w_12 + w_13 + w_14 + w_15 + w_18 + w_20
 + w_23 + w_24 + w_25 + w_26 + w_27 + w_28 + w_3 + w_31 + w_33 + w_34 + w_35
 + w_36 + w_37 + w_39 + w_4 + w_40 + w_42 + w_43 + w_44 + w_46 + w_47 + w_49
 + w_51 + w_52 + w_53 + w_54 + w_55 + w_56 + w_57 + w_6 + w_7 + w_8 + w_9
 >= 0.691
FOSD_18_4: w_0 + w_24 + w_25 + w_46 + w_56 >= 0.135
FOSD_19_0: w_0 + w_11 + w_12 + w_13 + w_16 + w_17 + w_19 + w_2 + w_20 + w_21
 + w_22 + w_23 + w_24 + w_25 + w_26 + w_27 + w_28 + w_29 + w_3 + w_31 + w_32
 + w_33 + w_36 + w_38 + w_39 + w_42 + w_45 + w_47 + w_48 + w_5 + w_51 + w_52
 + w_53 + w_56 + w_57 + w_58 + w_7 + w_8 + w_9 >= 0.74
FOSD_19_2: w_0 + w_1 + w_10 + w_11 + w_12 + w_13 + w_16 + w_17 + w_18 + w_19
 + w_2 + w_20 + w_21 + w_22 + w_23 + w_24 + w_25 + w_26 + w_27 + w_28 + w_29
 + w_3 + w_30 + w_31 + w_32 + w_33 + w_34 + w_35 + w_36 + w_37 + w_38 + w_39
 + w_4 + w_41 + w_42 + w_43 + w_44 + w_45 + w_46 + w_47 + w_48 + w_49 + w_5
 + w_50 + w_51 + w_52 + w_53 + w_54 + w_55 + w_56 + w_57 + w_58 + w_6 + w_7
 + w_8 + w_9 >= 0.972
FOSD_19_3: w_0 + w_1 + w_10 + w_11 + w_12 + w_13 + w_15 + w_16 + w_17 + w_18
 + w_19 + w_2 + w_20 + w_21 + w_22 + w_23 + w_24 + w_25 + w_26 + w_27 + w_28
 + w_29 + w_3 + w_30 + w_31 + w_32 + w_33 + w_34 + w_35 + w_36 + w_37 + w_38
 + w_39 + w_4 + w_41 + w_42 + w_43 + w_44 + w_45 + w_46 + w_47 + w_48 + w_49
 + w_5 + w_50 + w_51 + w_52 + w_53 + w_54 + w_55 + w_56 + w_57 + w_58 + w_6
 + w_7 + w_8 + w_9 >= 0.974
FOSD_1_1: w_0 + w_1 + w_10 + w_11 + w_12 + w_13 + w_14 + w_15 + w_16 + w_17
 + w_18 + w_19 + w_2 + w_20 + w_21 + w_22 + w_23 + w_24 + w_25 + w_26 + w_27
 + w_28 + w_29 + w_3 + w_30 + w_31 + w_32 + w_33 + w_34 + w_35 + w_36 + w_37
 + w_38 + w_39 + w_4 + w_40 + w_41 + w_42 + w_43 + w_44 + w_45 + w_46 + w_47
 + w_48 + w_49 + w_5 + w_50 + w_51 + w_52 + w_53 + w_54 + w_55 + w_56 + w_57
 + w_58 + w_6 + w_7 + w_8 + w_9 >= 1
FOSD_1_2: w_0 + w_1 + w_10 + w_11 + w_12 + w_13 + w_14 + w_15 + w_16 + w_17
 + w_18 + w_19 + w_2 + w_20 + w_21 + w_22 + w_23 + w_24 + w_25 + w_26 + w_27
 + w_28 + w_29 + w_3 + w_30 + w_31 + w_32 + w_33 + w_34 + w_35 + w_36 + w_37
 + w_38 + w_39 + w_4 + w_40 + w_41 + w_42 + w_43 + w_44 + w_45 + w_46 + w_47
 + w_48 + w_49 + w_5 + w_50 + w_51 + w_52 + w_53 + w_54 + w_55 + w_56 + w_57
 + w_58 + w_6 + w_7 + w_8 + w_9 >= 1
FOSD_1_4: w_0 + w_1 + w_10 + w_11 + w_12 + w_13 + w_14 + w_15 + w_16 + w_17
 + w_18 + w_19 + w_2 + w_20 + w_21 + w_22 + w_23 + w_24 + w_25 + w_26 + w_27
 + w_28 + w_29 + w_3 + w_30 + w_31 + w_32 + w_33 + w_34 + w_35 + w_36 + w_37
 + w_38 + w_39 + w_4 + w_40 + w_41 + w_42 + w_43 + w_44 + w_45 + w_46 + w_47
 + w_48 + w_49 + w_5 + w_50 + w_51 + w_52 + w_53 + w_54 + w_55 + w_56 + w_57
 + w_58 + w_6 + w_7 + w_8 + w_9 >= 1
FOSD_20_0: w_1 + w_12 + w_13 + w_17 + w_18 + w_19 + w_2 + w_20 + w_22 + w_24
 + w_25 + w_28 + w_29 + w_3 + w_30 + w_31 + w_32 + w_35 + w_37 + w_4 + w_41
 + w_42 + w_43 + w_45 + w_46 + w_47 + w_48 + w_49 + w_5 + w_50 + w_51 + w_52
 + w_54 + w_55 + w_56 + w_58 + w_6 + w_7 + w_8 >= 0.716
FOSD_20_1: w_0 + w_1 + w_10 + w_11 + w_12 + w_13 + w_14 + w_15 + w_16 + w_17
 + w_18 + w_19 + w_2 + w_20 + w_21 + w_22 + w_23 + w_24 + w_25 + w_26 + w_27
 + w_28 + w_29 + w_3 + w_30 + w_31 + w_32 + w_33 + w_34 + w_35 + w_36 + w_37
 + w_38 + w_39 + w_4 + w_40 + w_41 + w_42 + w_43 + w_44 + w_45 + w_46 + w_47
 + w_48 + w_49 + w_5 + w_50 + w_51 + w_52 + w_53 + w_54 + w_55 + w_56 + w_57
 + w_58 + w_6 + w_7 + w_8 + w_9 >= 1
FOSD_20_2: w_0 + w_1 + w_10 + w_11 + w_12 + w_13 + w_14 + w_15 + w_16 + w_17
 + w_18 + w_19 + w_2 + w_20 + w_21 + w_22 + w_23 + w_24 + w_25 + w_26 + w_27
 + w_28 + w_29 + w_3 + w_30 + w_31 + w_32 + w_33 + w_34 + w_35 + w_36 + w_37
 + w_38 + w_39 + w_4 + w_40 + w_41 + w_42 + w_43 + w_44 + w_45 + w_46 + w_47
 + w_48 + w_49 + w_5 + w_50 + w_51 + w_52 + w_53 + w_54 + w_55 + w_56 + w_57
 + w_58 + w_6 + w_7 + w_8 + w_9 >= 1
FOSD_20_3: __dummy >= 0
FOSD_20_4: w_0 + w_1 + w_10 + w_11 + w_12 + w_13 + w_14 + w_15 + w_16 + w_17
 + w_18 + w_19 + w_2 + w_20 + w_21 + w_22 + w_23 + w_24 + w_25 + w_26 + w_27
 + w_28 + w_29 + w_3 + w_30 + w_31 + w_32 + w_33 + w_34 + w_35 + w_36 + w_37
 + w_38 + w_39 + w_4 + w_40 + w_41 + w_42 + w_43 + w_44 + w_45 + w_46 + w_47
 + w_48 + w_49 + w_5 + w_50 + w_51 + w_52 + w_53 + w_54 + w_55 + w_56 + w_57
 + w_58 + w_6 + w_7 + w_8 + w_9 >= 1
FOSD_21_2: w_0 + w_1 + w_10 + w_11 + w_12 + w_13 + w_14 + w_15 + w_16 + w_17
 + w_18 + w_19 + w_2 + w_20 + w_21 + w_22 + w_23 + w_24 + w_25 + w_26 + w_27
 + w_28 + w_29 + w_3 + w_30 + w_31 + w_32 + w_33 + w_35 + w_36 + w_37 + w_38
 + w_39 + w_4 + w_40 + w_41 + w_42 + w_43 + w_45 + w_46 + w_47 + w_48 + w_49
 + w_5 + w_50 + w_51 + w_52 + w_53 + w_54 + w_55 + w_56 + w_57 + w_58 + w_6
 + w_7 + w_8 + w_9 >= 0.992
FOSD_22_0: __dummy >= 0
FOSD_22_3: __dummy >= 0
FOSD_23_0: w_0 + w_1 + w_10 + w_11 + w_12 + w_13 + w_14 + w_15 + w_16 + w_17
 + w_18 + w_19 + w_2 + w_20 + w_21 + w_22 + w_23 + w_24 + w_25 + w_26 + w_27
 + w_28 + w_29 + w_3 + w_30 + w_31 + w_32 + w_33 + w_34 + w_35 + w_36 + w_37
 + w_38 + w_39 + w_4 + w_40 + w_41 + w_42 + w_43 + w_44 + w_45 + w_46 + w_47
 + w_48 + w_49 + w_5 + w_50 + w_51 + w_52 + w_53 + w_54 + w_55 + w_56 + w_57
 + w_58 + w_6 + w_7 + w_8 + w_9 >= 1
FOSD_23_1: w_0 + w_1 + w_10 + w_11 + w_12 + w_13 + w_14 + w_15 + w_16 + w_17
 + w_18 + w_19 + w_2 + w_20 + w_21 + w_22 + w_23 + w_24 + w_25 + w_26 + w_27
 + w_28 + w_29 + w_3 + w_30 + w_31 + w_32 + w_33 + w_34 + w_35 + w_36 + w_37
 + w_38 + w_39 + w_4 + w_40 + w_41 + w_42 + w_43 + w_44 + w_45 + w_46 + w_47
 + w_48 + w_49 + w_5 + w_50 + w_51 + w_52 + w_53 + w_54 + w_55 + w_56 + w_57
 + w_58 + w_6 + w_7 + w_8 + w_9 >= 1
FOSD_23_2: w_0 + w_1 + w_10 + w_11 + w_12 + w_13 + w_14 + w_15 + w_16 + w_17
 + w_18 + w_19 + w_2 + w_20 + w_21 + w_22 + w_23 + w_24 + w_25 + w_26 + w_27
 + w_28 + w_29 + w_3 + w_30 + w_31 + w_32 + w_33 + w_34 + w_35 + w_36 + w_37
 + w_38 + w_39 + w_4 + w_40 + w_41 + w_42 + w_43 + w_44 + w_45 + w_46 + w_47
 + w_48 + w_49 + w_5 + w_50 + w_51 + w_52 + w_53 + w_54 + w_55 + w_56 + w_57
 + w_58 + w_6 + w_7 + w_8 + w_9 >= 1
FOSD_23_3: w_0 + w_1 + w_10 + w_11 + w_12 + w_13 + w_14 + w_15 + w_16 + w_17
 + w_18 + w_19 + w_2 + w_20 + w_21 + w_22 + w_23 + w_24 + w_25 + w_26 + w_27
 + w_28 + w_29 + w_3 + w_30 + w_31 + w_32 + w_33 + w_34 + w_35 + w_36 + w_37
 + w_38 + w_39 + w_4 + w_40 + w_41 + w_42 + w_43 + w_44 + w_45 + w_46 + w_47
 + w_48 + w_49 + w_5 + w_50 + w_51 + w_52 + w_53 + w_54 + w_55 + w_56 + w_57
 + w_58 + w_6 + w_7 + w_8 + w_9 >= 1
FOSD_23_4: w_0 + w_1 + w_10 + w_11 + w_12 + w_13 + w_14 + w_15 + w_16 + w_17
 + w_18 + w_19 + w_2 + w_20 + w_21 + w_22 + w_23 + w_24 + w_25 + w_26 + w_27
 + w_28 + w_29 + w_3 + w_30 + w_31 + w_32 + w_33 + w_34 + w_35 + w_36 + w_37
 + w_38 + w_39 + w_4 + w_40 + w_41 + w_42 + w_43 + w_44 + w_45 + w_46 + w_47
 + w_48 + w_49 + w_5 + w_50 + w_51 + w_52 + w_53 + w_54 + w_55 + w_56 + w_57
 + w_58 + w_6 + w_7 + w_8 + w_9 >= 1
FOSD_24_0: w_0 + w_1 + w_10 + w_11 + w_12 + w_13 + w_14 + w_15 + w_16 + w_17
 + w_18 + w_19 + w_2 + w_20 + w_21 + w_22 + w_23 + w_24 + w_25 + w_26 + w_27
 + w_28 + w_29 + w_3 + w_30 + w_31 + w_32 + w_33 + w_34 + w_35 + w_36 + w_37
 + w_38 + w_39 + w_4 + w_40 + w_41 + w_42 + w_43 + w_44 + w_45 + w_46 + w_47
 + w_48 + w_49 + w_5 + w_50 + w_51 + w_52 + w_53 + w_54 + w_55 + w_56 + w_57
 + w_58 + w_6 + w_7 + w_8 + w_9 >= 1
FOSD_24_3: __dummy >= 0
FOSD_24_4: w_0 + w_1 + w_10 + w_11 + w_12 + w_13 + w_14 + w_15 + w_16 + w_17
 + w_18 + w_19 + w_2 + w_20 + w_21 + w_22 + w_23 + w_24 + w_25 + w_26 + w_27
 + w_28 + w_29 + w_3 + w_30 + w_31 + w_32 + w_33 + w_34 + w_35 + w_36 + w_37
 + w_38 + w_39 + w_4 + w_40 + w_41 + w_42 + w_43 + w_44 + w_45 + w_46 + w_47
 + w_48 + w_49 + w_5 + w_50 + w_51 + w_52 + w_53 + w_54 + w_55 + w_56 + w_57
 + w_58 + w_6 + w_7 + w_8 + w_9 >= 1
FOSD_25_0: w_0 + w_1 + w_10 + w_11 + w_12 + w_13 + w_14 + w_15 + w_16 + w_17
 + w_18 + w_19 + w_2 + w_20 + w_21 + w_22 + w_23 + w_24 + w_25 + w_26 + w_27
 + w_28 + w_29 + w_3 + w_30 + w_31 + w_32 + w_33 + w_34 + w_35 + w_36 + w_37
 + w_38 + w_39 + w_4 + w_40 + w_41 + w_42 + w_43 + w_44 + w_45 + w_46 + w_47
 + w_48 + w_49 + w_5 + w_50 + w_51 + w_52 + w_53 + w_54 + w_55 + w_56 + w_57
 + w_58 + w_6 + w_7 + w_8 + w_9 >= 1
FOSD_25_2: w_0 + w_1 + w_10 + w_11 + w_12 + w_13 + w_14 + w_15 + w_16 + w_17
 + w_18 + w_19 + w_2 + w_20 + w_21 + w_22 + w_23 + w_24 + w_25 + w_26 + w_27
 + w_28 + w_29 + w_3 + w_30 + w_31 + w_32 + w_33 + w_34 + w_35 + w_36 + w_37
 + w_38 + w_39 + w_4 + w_40 + w_41 + w_42 + w_43 + w_44 + w_45 + w_46 + w_47
 + w_48 + w_49 + w_5 + w_50 + w_51 + w_52 + w_53 + w_54 + w_55 + w_56 + w_57
 + w_58 + w_6 + w_7 + w_8 + w_9 >= 1
FOSD_25_4: w_0 + w_1 + w_10 + w_11 + w_12 + w_13 + w_14 + w_15 + w_16 + w_17
 + w_18 + w_19 + w_2 + w_20 + w_21 + w_22 + w_23 + w_24 + w_25 + w_26 + w_27
 + w_28 + w_29 + w_3 + w_30 + w_31 + w_32 + w_33 + w_34 + w_35 + w_36 + w_37
 + w_38 + w_39 + w_4 + w_40 + w_41 + w_42 + w_43 + w_44 + w_45 + w_46 + w_47
 + w_48 + w_49 + w_5 + w_50 + w_51 + w_52 + w_53 + w_54 + w_55 + w_56 + w_57
 + w_58 + w_6 + w_7 + w_8 + w_9 >= 1
FOSD_26_1: w_0 + w_1 + w_10 + w_11 + w_12 + w_13 + w_14 + w_15 + w_16 + w_17
 + w_18 + w_19 + w_2 + w_20 + w_21 + w_22 + w_23 + w_24 + w_25 + w_26 + w_27
 + w_28 + w_29 + w_3 + w_30 + w_31 + w_32 + w_33 + w_34 + w_35 + w_36 + w_37
 + w_38 + w_39 + w_4 + w_40 + w_41 + w_42 + w_43 + w_44 + w_45 + w_46 + w_47
 + w_48 + w_49 + w_5 + w_50 + w_51 + w_52 + w_53 + w_54 + w_55 + w_56 + w_57
 + w_58 + w_6 + w_7 + w_8 + w_9 >= 1
FOSD_26_2: w_0 + w_1 + w_10 + w_11 + w_12 + w_13 + w_14 + w_15 + w_16 + w_17
 + w_18 + w_19 + w_2 + w_20 + w_21 + w_22 + w_23 + w_24 + w_25 + w_26 + w_27
 + w_28 + w_29 + w_3 + w_30 + w_31 + w_32 + w_33 + w_34 + w_35 + w_36 + w_37
 + w_38 + w_39 + w_4 + w_40 + w_41 + w_42 + w_43 + w_44 + w_45 + w_46 + w_47
 + w_48 + w_49 + w_5 + w_50 + w_51 + w_52 + w_53 + w_54 + w_55 + w_56 + w_57
 + w_58 + w_6 + w_7 + w_8 + w_9 >= 1
FOSD_27_0: w_0 + w_1 + w_10 + w_11 + w_13 + w_14 + w_15 + w_16 + w_17 + w_19
 + w_21 + w_23 + w_24 + w_25 + w_27 + w_29 + w_3 + w_30 + w_32 + w_33 + w_34
 + w_35 + w_37 + w_38 + w_39 + w_4 + w_40 + w_41 + w_42 + w_43 + w_44 + w_45
 + w_46 + w_5 + w_50 + w_54 + w_57 + w_58 + w_6 + w_7 + w_8 + w_9 >= 0.723
FOSD_28_1: w_0 + w_1 + w_10 + w_11 + w_12 + w_13 + w_14 + w_15 + w_16 + w_17
 + w_18 + w_19 + w_2 + w_20 + w_21 + w_22 + w_23 + w_24 + w_25 + w_26 + w_27
 + w_28 + w_29 + w_3 + w_30 + w_31 + w_32 + w_33 + w_34 + w_35 + w_36 + w_37
 + w_38 + w_39 + w_4 + w_40 + w_41 + w_42 + w_43 + w_44 + w_45 + w_46 + w_47
 + w_48 + w_49 + w_5 + w_50 + w_51 + w_52 + w_53 + w_54 + w_55 + w_56 + w_57
 + w_58 + w_6 + w_7 + w_8 + w_9 >= 1
FOSD_28_3: w_0 + w_1 + w_10 + w_11 + w_12 + w_13 + w_14 + w_15 + w_16 + w_17
 + w_18 + w_19 + w_2 + w_20 + w_21 + w_22 + w_23 + w_24 + w_25 + w_26 + w_27
 + w_28 + w_29 + w_3 + w_30 + w_31 + w_32 + w_33 + w_34 + w_35 + w_36 + w_37
 + w_38 + w_39 + w_4 + w_40 + w_41 + w_42 + w_43 + w_44 + w_45 + w_46 + w_47
 + w_48 + w_49 + w_5 + w_50 + w_51 + w_52 + w_53 + w_54 + w_55 + w_56 + w_57
 + w_58 + w_6 + w_7 + w_8 + w_9 >= 1
FOSD_28_4: w_0 + w_1 + w_10 + w_11 + w_12 + w_13 + w_14 + w_15 + w_16 + w_17
 + w_18 + w_19 + w_2 + w_20 + w_21 + w_22 + w_23 + w_24 + w_25 + w_26 + w_27
 + w_28 + w_29 + w_3 + w_30 + w_31 + w_32 + w_33 + w_34 + w_35 + w_36 + w_37
 + w_38 + w_39 + w_4 + w_40 + w_41 + w_42 + w_43 + w_44 + w_45 + w_46 + w_47
 + w_48 + w_49 + w_5 + w_50 + w_51 + w_52 + w_53 + w_54 + w_55 + w_56 + w_57
 + w_58 + w_6 + w_7 + w_8 + w_9 >= 1
FOSD_29_0: __dummy >= 0
FOSD_29_2: w_0 + w_1 + w_10 + w_11 + w_12 + w_13 + w_14 + w_15 + w_16 + w_17
 + w_18 + w_19 + w_2 + w_20 + w_21 + w_22 + w_23 + w_24 + w_25 + w_26 + w_27
 + w_28 + w_29 + w_3 + w_30 + w_31 + w_32 + w_33 + w_34 + w_35 + w_36 + w_37
 + w_38 + w_39 + w_4 + w_40 + w_41 + w_42 + w_43 + w_44 + w_45 + w_46 + w_47
 + w_48 + w_49 + w_5 + w_50 + w_51 + w_52 + w_53 + w_54 + w_55 + w_56 + w_57
 + w_58 + w_6 + w_7 + w_8 + w_9 >= 1
FOSD_29_3: w_0 + w_1 + w_10 + w_11 + w_12 + w_13 + w_14 + w_15 + w_16 + w_17
 + w_18 + w_19 + w_2 + w_20 + w_21 + w_22 + w_23 + w_24 + w_25 + w_26 + w_27
 + w_28 + w_29 + w_3 + w_30 + w_31 + w_32 + w_33 + w_34 + w_35 + w_36 + w_37
 + w_38 + w_39 + w_4 + w_40 + w_41 + w_42 + w_43 + w_44 + w_45 + w_46 + w_47
 + w_48 + w_49 + w_5 + w_50 + w_51 + w_52 + w_53 + w_54 + w_55 + w_56 + w_57
 + w_58 + w_6 + w_7 + w_8 + w_9 >= 1
FOSD_2_0: w_0 + w_1 + w_10 + w_11 + w_12 + w_13 + w_14 + w_15 + w_16 + w_17
 + w_18 + w_19 + w_2 + w_20 + w_21 + w_22 + w_23 + w_24 + w_25 + w_26 + w_27
 + w_28 + w_29 + w_3 + w_30 + w_31 + w_32 + w_33 + w_34 + w_35 + w_36 + w_37
 + w_38 + w_39 + w_4 + w_40 + w_41 + w_42 + w_43 + w_44 + w_45 + w_46 + w_47
 + w_48 + w_49 + w_5 + w_50 + w_51 + w_52 + w_53 + w_54 + w_55 + w_56 + w_57
 + w_58 + w_6 + w_7 + w_8 + w_9 >= 1
FOSD_2_3: __dummy >= 0
FOSD_3_2: w_0 + w_1 + w_10 + w_11 + w_12 + w_13 + w_14 + w_15 + w_16 + w_17
 + w_18 + w_19 + w_2 + w_20 + w_21 + w_22 + w_23 + w_24 + w_25 + w_26 + w_27
 + w_28 + w_29 + w_3 + w_30 + w_31 + w_32 + w_33 + w_34 + w_35 + w_36 + w_37
 + w_38 + w_39 + w_4 + w_40 + w_41 + w_42 + w_43 + w_44 + w_45 + w_46 + w_47
 + w_48 + w_49 + w_5 + w_50 + w_51 + w_52 + w_53 + w_54 + w_55 + w_56 + w_57
 + w_58 + w_6 + w_7 + w_8 + w_9 >= 1
FOSD_3_4: w_0 + w_1 + w_10 + w_11 + w_12 + w_13 + w_14 + w_15 + w_16 + w_17
 + w_18 + w_19 + w_2 + w_20 + w_21 + w_22 + w_23 + w_24 + w_25 + w_26 + w_27
 + w_28 + w_29 + w_3 + w_30 + w_31 + w_32 + w_33 + w_34 + w_35 + w_36 + w_37
 + w_38 + w_39 + w_4 + w_40 + w_41 + w_42 + w_43 + w_44 + w_45 + w_46 + w_47
 + w_48 + w_49 + w_5 + w_50 + w_51 + w_52 + w_53 + w_54 + w_55 + w_56 + w_57
 + w_58 + w_6 + w_7 + w_8 + w_9 >= 1
FOSD_4_0: w_0 + w_1 + w_10 + w_12 + w_14 + w_15 + w_16 + w_17 + w_18 + w_19
 + w_2 + w_20 + w_21 + w_22 + w_23 + w_25 + w_26 + w_30 + w_32 + w_33 + w_34
 + w_36 + w_37 + w_38 + w_40 + w_41 + w_44 + w_46 + w_47 + w_48 + w_49 + w_5
 + w_50 + w_51 + w_53 + w_54 + w_55 + w_56 + w_57 + w_6 + w_7 + w_9 >= 0.676
FOSD_4_3: __dummy >= 0
FOSD_5_0: w_0 + w_1 + w_10 + w_11 + w_12 + w_13 + w_14 + w_15 + w_16 + w_17
 + w_18 + w_19 + w_2 + w_20 + w_21 + w_22 + w_23 + w_24 + w_25 + w_26 + w_27
 + w_28 + w_29 + w_3 + w_30 + w_31 + w_32 + w_33 + w_34 + w_35 + w_36 + w_37
 + w_38 + w_39 + w_4 + w_40 + w_41 + w_42 + w_43 + w_44 + w_45 + w_46 + w_47
 + w_48 + w_49 + w_5 + w_50 + w_51 + w_52 + w_53 + w_54 + w_55 + w_56 + w_57
 + w_58 + w_6 + w_7 + w_8 + w_9 >= 1
FOSD_5_1: w_0 + w_1 + w_10 + w_11 + w_12 + w_13 + w_14 + w_15 + w_16 + w_17
 + w_18 + w_19 + w_2 + w_20 + w_21 + w_22 + w_23 + w_24 + w_25 + w_26 + w_27
 + w_28 + w_29 + w_3 + w_30 + w_31 + w_32 + w_33 + w_34 + w_35 + w_36 + w_37
 + w_38 + w_39 + w_4 + w_40 + w_41 + w_42 + w_43 + w_44 + w_45 + w_46 + w_47
 + w_48 + w_49 + w_5 + w_50 + w_51 + w_52 + w_53 + w_54 + w_55 + w_56 + w_57
 + w_58 + w_6 + w_7 + w_8 + w_9 >= 1
FOSD_5_4: w_1 + w_17 + w_47 + w_7 + w_8 + w_9 >= 0.106
FOSD_6_2: w_0 + w_1 + w_10 + w_11 + w_12 + w_13 + w_14 + w_15 + w_16 + w_17
 + w_18 + w_19 + w_2 + w_20 + w_21 + w_22 + w_23 + w_24 + w_25 + w_26 + w_27
 + w_28 + w_29 + w_3 + w_30 + w_31 + w_32 + w_33 + w_34 + w_35 + w_36 + w_37
 + w_38 + w_39 + w_4 + w_40 + w_41 + w_42 + w_43 + w_44 + w_45 + w_46 + w_47
 + w_48 + w_49 + w_5 + w_50 + w_51 + w_52 + w_53 + w_54 + w_55 + w_56 + w_57
 + w_58 + w_6 + w_7 + w_8 + w_9 >= 1
FOSD_6_3: w_0 + w_1 + w_10 + w_11 + w_12 + w_13 + w_14 + w_15 + w_16 + w_17
 + w_18 + w_19 + w_2 + w_20 + w_21 + w_22 + w_23 + w_24 + w_25 + w_26 + w_27
 + w_28 + w_29 + w_3 + w_30 + w_31 + w_32 + w_33 + w_34 + w_35 + w_36 + w_37
 + w_38 + w_39 + w_4 + w_40 + w_41 + w_42 + w_43 + w_44 + w_45 + w_46 + w_47
 + w_48 + w_49 + w_5 + w_50 + w_51 + w_52 + w_53 + w_54 + w_55 + w_56 + w_57
 + w_58 + w_6 + w_7 + w_8 + w_9 >= 1
FOSD_6_4: w_0 + w_1 + w_10 + w_11 + w_12 + w_13 + w_14 + w_15 + w_16 + w_17
 + w_18 + w_19 + w_2 + w_20 + w_21 + w_22 + w_23 + w_24 + w_25 + w_26 + w_27
 + w_28 + w_29 + w_3 + w_30 + w_31 + w_32 + w_33 + w_34 + w_35 + w_36 + w_37
 + w_38 + w_39 + w_4 + w_40 + w_41 + w_42 + w_43 + w_44 + w_45 + w_46 + w_47
 + w_48 + w_49 + w_5 + w_50 + w_51 + w_52 + w_53 + w_54 + w_55 + w_56 + w_57
 + w_58 + w_6 + w_7 + w_8 + w_9 >= 1
FOSD_7_0: w_0 + w_1 + w_10 + w_11 + w_12 + w_13 + w_14 + w_15 + w_16 + w_17
 + w_18 + w_19 + w_2 + w_20 + w_21 + w_22 + w_23 + w_24 + w_25 + w_26 + w_27
 + w_28 + w_29 + w_3 + w_30 + w_31 + w_32 + w_33 + w_34 + w_35 + w_36 + w_37
 + w_38 + w_39 + w_4 + w_40 + w_41 + w_42 + w_43 + w_44 + w_45 + w_46 + w_47
 + w_48 + w_49 + w_5 + w_50 + w_51 + w_52 + w_53 + w_54 + w_55 + w_56 + w_57
 + w_58 + w_6 + w_7 + w_8 + w_9 >= 1
FOSD_7_2: w_0 + w_1 + w_10 + w_11 + w_12 + w_13 + w_14 + w_15 + w_16 + w_17
 + w_18 + w_19 + w_2 + w_20 + w_21 + w_22 + w_23 + w_24 + w_25 + w_26 + w_27
 + w_28 + w_29 + w_3 + w_30 + w_31 + w_32 + w_33 + w_34 + w_35 + w_36 + w_37
 + w_38 + w_39 + w_4 + w_40 + w_41 + w_42 + w_43 + w_44 + w_45 + w_46 + w_47
 + w_48 + w_49 + w_5 + w_50 + w_51 + w_52 + w_53 + w_54 + w_55 + w_56 + w_57
 + w_58 + w_6 + w_7 + w_8 + w_9 >= 1
FOSD_8_0: __dummy >= 0
FOSD_8_3: w_12 + w_18 + w_19 + w_22 + w_29 + w_37 + w_38 + w_39 + w_4 + w_40
 + w_42 + w_44 + w_50 + w_52 + w_53 + w_57 >= 0.504
FOSD_9_3: w_0 + w_1 + w_10 + w_11 + w_13 + w_14 + w_16 + w_17 + w_2 + w_20
 + w_21 + w_23 + w_24 + w_25 + w_26 + w_27 + w_28 + w_3 + w_30 + w_31 + w_32
 + w_33 + w_34 + w_35 + w_36 + w_41 + w_43 + w_45 + w_46 + w_47 + w_48 + w_49
 + w_5 + w_51 + w_54 + w_55 + w_56 + w_58 + w_6 + w_7 + w_8 + w_9 >= 0.494
FOSD_9_4: w_0 + w_1 + w_10 + w_11 + w_12 + w_13 + w_14 + w_15 + w_16 + w_17
 + w_18 + w_19 + w_2 + w_20 + w_21 + w_22 + w_23 + w_24 + w_25 + w_26 + w_27
 + w_28 + w_29 + w_3 + w_30 + w_31 + w_32 + w_33 + w_34 + w_35 + w_36 + w_37
 + w_38 + w_39 + w_4 + w_40 + w_41 + w_42 + w_43 + w_44 + w_45 + w_46 + w_47
 + w_48 + w_49 + w_5 + w_50 + w_51 + w_52 + w_53 + w_54 + w_55 + w_56 + w_57
 + w_58 + w_6 + w_7 + w_8 + w_9 >= 1
GE0_0: w_0 >= 0
GE0_1: w_1 >= 0
GE0_10: w_10 >= 0
GE0_11: w_11 >= 0
GE0_12: w_12 >= 0
GE0_13: w_13 >= 0
GE0_14: w_14 >= 0
GE0_15: w_15 >= 0
GE0_16: w_16 >= 0
GE0_17: w_17 >= 0
GE0_18: w_18 >= 0
GE0_19: w_19 >= 0
GE0_2: w_2 >= 0
GE0_20: w_20 >= 0
GE0_21: w_21 >= 0
GE0_22: w_22 >= 0
GE0_23: w_23 >= 0
GE0_24: w_24 >= 0
GE0_25: w_25 >= 0
GE0_26: w_26 >= 0
GE0_27: w_27 >= 0
GE0_28: w_28 >= 0
GE0_29: w_29 >= 0
GE0_3: w_3 >= 0
GE0_30: w_30 >= 0
GE0_31: w_31 >= 0
GE0_32: w_32 >= 0
GE0_33: w_33 >= 0
GE0_34: w_34 >= 0
GE0_35: w_35 >= 0
GE0_36: w_36 >= 0
GE0_37: w_37 >= 0
GE0_38: w_38 >= 0
GE0_39: w_39 >= 0
GE0_4: w_4 >= 0
GE0_40: w_40 >= 0
GE0_41: w_41 >= 0
GE0_42: w_42 >= 0
GE0_43: w_43 >= 0
GE0_44: w_44 >= 0
GE0_45: w_45 >= 0
GE0_46: w_46 >= 0
GE0_47: w_47 >= 0
GE0_48: w_48 >= 0
GE0_49: w_49 >= 0
GE0_5: w_5 >= 0
GE0_50: w_50 >= 0
GE0_51: w_51 >= 0
GE0_52: w_52 >= 0
GE0_53: w_53 >= 0
GE0_54: w_54 >= 0
GE0_55: w_55 >= 0
GE0_56: w_56 >= 0
GE0_57: w_57 >= 0
GE0_58: w_58 >= 0
GE0_6: w_6 >= 0
GE0_7: w_7 >= 0
GE0_8: w_8 >= 0
GE0_9: w_9 >= 0
Sum_to_one: w_0 + w_1 + w_10 + w_11 + w_12 + w_13 + w_14 + w_15 + w_16 + w_17
 + w_18 + w_19 + w_2 + w_20 + w_21 + w_22 + w_23 + w_24 + w_25 + w_26 + w_27
 + w_28 + w_29 + w_3 + w_30 + w_31 + w_32 + w_33 + w_34 + w_35 + w_36 + w_37
 + w_38 + w_39 + w_4 + w_40 + w_41 + w_42 + w_43 + w_44 + w_45 + w_46 + w_47
 + w_48 + w_49 + w_5 + w_50 + w_51 + w_52 + w_53 + w_54 + w_55 + w_56 + w_57
 + w_58 + w_6 + w_7 + w_8 + w_9 = 1
Bounds
 __dummy = 0
 w_0 free
 w_1 free
 w_10 free
 w_11 free
 w_12 free
 w_13 free
 w_14 free
 w_15 free
 w_16 free
 w_17 free
 w_18 free
 w_19 free
 w_2 free
 w_20 free
 w_21 free
 w_22 free
 w_23 free
 w_24 free
 w_25 free
 w_26 free
 w_27 free
 w_28 free
 w_29 free
 w_3 free
 w_30 free
 w_31 free
 w_32 free
 w_33 free
 w_34 free
 w_35 free
 w_36 free
 w_37 free
 w_38 free
 w_39 free
 w_4 free
 w_40 free
 w_41 free
 w_42 free
 w_43 free
 w_44 free
 w_45 free
 w_46 free
 w_47 free
 w_48 free
 w_49 free
 w_5 free
 w_50 free
 w_51 free
 w_52 free
 w_53 free
 w_54 free
 w_55 free
 w_56 free
 w_57 free
 w_58 free
 w_6 free
 w_7 free
 w_8 free
 w_9 free
End
